% File represents an instance of a Composite Structure problem to be solved by a CP framework
% Created on 2025-03-26 10:41:37.088
T = 54;
n = 25;
m = 40;
edges = [(1, 2),
(6, 7),
(11, 12),
(16, 17),
(22, 21),
(2, 3),
(8, 7),
(13, 12),
(18, 17),
(22, 23),
(4, 3),
(9, 8),
(14, 13),
(19, 18),
(24, 23),
(4, 5),
(9, 10),
(14, 15),
(19, 20),
(24, 25),
(1, 6),
(11, 6),
(16, 11),
(16, 21),
(2, 7),
(12, 7),
(17, 12),
(22, 17),
(8, 3),
(13, 8),
(18, 13),
(18, 23),
(9, 4),
(14, 9),
(19, 14),
(24, 19),
(10, 5),
(15, 10),
(20, 15),
(25, 20)];
counts = [|14, 8, 14, 6,
|14, 8, 14, 2,
|14, 6, 14, 2,
|14, 8, 14, 4,
|14, 8, 14, 2,
|14, 6, 14, 6,
|14, 6, 14, 2,
|14, 12, 14, 2,
|14, 12, 14, 6,
|14, 12, 14, 2,
|14, 8, 14, 10,
|14, 8, 14, 6,
|14, 12, 14, 6,
|14, 12, 14, 10,
|14, 12, 14, 4,
|16, 8, 16, 10,
|14, 8, 14, 10,
|14, 12, 14, 10,
|14, 12, 14, 12,
|14, 12, 14, 10,
|14, 8, 14, 8,
|14, 12, 14, 10,
|14, 12, 14, 8,
|14, 12, 14, 14,
|14, 12, 14, 12|];
